% demand
num_movements = 33;
loading_factor = [1300, 1800, 1250, 1800, 1750, 1400, 1100, 1300, 1600, 800, 1000, 950, 1350, 2000, 850, 1150, 1700, 1100, 1050, 1250, 900, 1350, 2000, 1850, 1150, 1650, 800, 1400, 1500, 1250, 950, 1250, 1750];
pickup_time = [0, 1, 1, 1, 1, 1, 1, 2, 2, 2, 2, 2, 2, 2, 2, 4, 4, 4, 4, 4, 5, 5, 6, 6, 6, 6, 8, 8, 8, 8, 8, 8, 9];
delivery_time = [2, 2, 2, 2, 2, 2, 2, 8, 6, 3, 3, 4, 8, 4, 3, 5, 5, 5, 5, 6, 6, 8, 9, 9, 8, 8, 10, 9, 10, 9, 9, 9, 10];

% transporter definition
total_capacity = 11000;
num_decks = 4;
capacity = [3000, 3000, 1000, 4000];

% ways out of decks
num_ways_out = 2;
paths_out = array3d(decks, ways_out, decks, [
% ways out of deck d1
2, 4, 0, 0, 3, 4, 0, 0, 

% ways out of deck d2
4, 0, 0, 0, 0, 0, 0, 0,	

% ways out of deck d3
4, 0, 0, 0, 0, 0, 0, 0,	

% ways out of deck d4
0, 0, 0, 0,	0, 0, 0, 0,	

]);

